\ Model ajuste
\ LP format - for model browsing. Use MPS format to capture full model detail.
Minimize
  - 3.7573275941249747e+06 coef_ajuste + 1.8786637970624873e+06 Constant + [
   3.7573275941249738e+06 coef_ajuste ^2 ] / 2 
Subject To
Bounds
 coef_ajuste <= 1
 Constant = 1
End
